c turning on binary mode checking
c parsing input formula with 259840 variables and 1039934 clauses
c finished parsing, read 3516103 bytes from proof file
c detected empty clause; start verification via backward checking
c 10791 of 1039934 clauses in core                            
c 3912 of 131631 lemmas in core using 222352 resolution steps
c 0 RAT lemmas in core; 1537 redundant literals in core lemmas
s VERIFIED
c verification time: 1.877 seconds
